SPARKNaCl/why3-z3/sparknacl-hashing-rfsb509.adb_184_28_initialization_1.smt2
;; produced by z3_gnatprove.drv ;;
(set-info :smt-lib-version 2.5)
(set-info :source |VC generated by SPARK 2014|)
(set-info :category industrial)
(set-info :status unknown)
;;; generated by SMT-LIB2 driver
;;; SMT-LIB2 driver: bit-vectors, common part
;;; SMT-LIB2: integer arithmetic
(declare-datatypes ()
  ((int__ref (int__refqtmk (int__content Int)))))

(declare-sort byte 0)

(declare-datatypes ()
  ((byte__init_wrapper
   (byte__init_wrapperqtmk (rec__value byte)(us_attr__init Bool)))))

;; "to_rep"
(declare-fun to_rep (byte) (_ BitVec 8))

;; "of_rep"
(declare-fun of_rep ((_ BitVec 8)) byte)

;; "inversion_axiom"
(assert
  (forall ((x byte)) (! (= (of_rep (to_rep x)) x) :pattern ((to_rep x)) )))

;; "range_axiom"
(assert true)

;; "coerce_axiom"
(assert
  (forall ((x (_ BitVec 8)))
    (! (= (to_rep (of_rep x)) x) :pattern ((to_rep (of_rep x))) )))

(declare-sort map1 0)

(declare-datatypes ()
  ((map__ref (map__refqtmk (map__content map1)))))

;; "has_bounds"
(declare-fun has_bounds (map1
  Int
  Int) Bool)

;; "get"
(declare-fun get (map1
  Int) byte__init_wrapper)

(declare-sort map2 0)

(declare-datatypes ()
  ((map__ref1 (map__refqtmk1 (map__content1 map2)))))

;; "has_bounds"
(declare-fun has_bounds1 (map2
  Int
  Int) Bool)

;; "get"
(declare-fun get1 (map2
  Int) byte)

;; "__is_initialized"
(define-fun us_is_initialized ((temp___expr_359 map1)) Bool
  (forall ((temp___360 Int))
    (=>
      (and (<= 0 temp___360) (<= temp___360 63))
      (= (us_attr__init (get temp___expr_359 temp___360)) true))))

;; "convert"
(declare-fun convert (map1) map2)

;; "convert__def"
(assert
  (forall ((a map1))
    (forall ((temp___169 Int))
      (= (to_rep (of_rep (to_rep (rec__value (get a temp___169))))) (to_rep
                                                                    (get1
                                                                    (convert
                                                                    a)
                                                                    temp___169))))))

;; "dynamic_invariant"
(define-fun dynamic_invariant ((temp___expr_371 map2) (temp___is_init_367 Bool) (temp___skip_constant_368 Bool) (temp___do_toplevel_369 Bool) (temp___do_typ_inv_370 Bool)) Bool
  (and
    (=>
      (= temp___is_init_367 true)
      (=>
        (= temp___do_toplevel_369 true)
        (= (bvand (to_rep (get1 temp___expr_371 63)) #xE0) #x00)))
    (has_bounds1 temp___expr_371 0 63)))

;; "__is_initialized"
(define-fun us_is_initialized1 ((temp___expr_381 map1)) Bool
  (and
    (forall ((temp___382 Int))
      (=>
        (and (<= 0 temp___382) (<= temp___382 63))
        (= (us_attr__init (get temp___expr_381 temp___382)) true)))
    (= (bvand (to_rep
                (get1
                  (let ((temp___384 (convert temp___expr_381))) temp___384)
                  63)) #xE0) #x00)))

(declare-const block map2)

;; "convert"
(declare-fun convert1 (map2) map1)

;; "convert__def"
(assert
  (forall ((a map2))
    (let ((b (convert1 a)))
      (forall ((temp___170 Int))
        (and
          (= (us_attr__init
               (byte__init_wrapperqtmk
                 (of_rep (to_rep (get1 a temp___170)))
                 true)) (us_attr__init (get b temp___170)))
          (= (to_rep
               (rec__value
                 (byte__init_wrapperqtmk
                   (of_rep (to_rep (get1 a temp___170)))
                   true))) (to_rep (rec__value (get b temp___170)))))))))

(declare-const chain_value map2)

(declare-const sum map2)

(declare-const column map2)

;; "column'unused"
(define-fun columnqtunused () map__ref1
  (map__refqtmk1 column))

;; "sum'unused"
(define-fun sumqtunused () map__ref1
  (map__refqtmk1 sum))

;; "chain_value'unused"
(define-fun chain_valueqtunused () map__ref1
  (map__refqtmk1 chain_value))

;; "Assume"
(assert (dynamic_invariant chain_value true false true true))

;; "Assume"
(assert (has_bounds1 block 0 47))

;; "Assume"
(assert true)

;; "Assume"
(assert true)

;; "Assume"
(assert (dynamic_invariant sum false false true true))

;; "Assume"
(assert true)

;; "Assume"
(assert (dynamic_invariant column false false true true))

;; "map__content'result'unused"
(define-fun map__contentqtresultqtunused () map2
  sum)

;; "temp___compl_865"
(define-fun temp___compl_865 () map1
  (convert1 sum))

;; "convert'result'unused"
(define-fun convertqtresultqtunused () map1
  temp___compl_865)

;; "param__column'unused"
(define-fun param__columnqtunused () map__ref
  (map__refqtmk temp___compl_865))

;; "map__ref'mk'result'unused"
(define-fun map__refqtmkqtresultqtunused () map__ref
  (map__refqtmk temp___compl_865))

;; "map__content'result'unused"
(define-fun map__contentqtresultqtunused1 () map2
  chain_value)

;; "o"
(define-fun o () byte
  (get1 chain_value 0))

;; "get'result'unused"
(define-fun getqtresultqtunused () byte
  o)

(declare-const o1 (_ BitVec 8))

;; "Ensures"
(assert (= (to_rep o) o1))

;; "to_rep'result'unused"
(define-fun to_repqtresultqtunused () (_ BitVec 8)
  o1)

(declare-const param__column map1)

;; "param__column'unused"
(define-fun param__columnqtunused1 () map__ref
  (map__refqtmk param__column))

;; "H"
(assert (us_is_initialized param__column))

;; "H"
(assert (= (bvand (to_rep (rec__value (get param__column 63))) #xE0) #x00))

;; "H"
(assert (has_bounds param__column 0 63))

;; "H"
(assert true)

;; "H"
(assert true)

;; "map__content'result'unused"
(define-fun map__contentqtresultqtunused2 () map1
  param__column)

;; "Assert"
(assert
  (and
    (us_is_initialized1 param__column)
    (= (bvand (to_rep (get1 (convert param__column) 63)) #xE0) #x00)))

;; "temp___874"
(define-fun temp___874 () map2
  (convert param__column))

;; "convert'result'unused"
(define-fun convertqtresultqtunused1 () map2
  temp___874)

(declare-const sum1 map2)

;; "sum'unused"
(define-fun sumqtunused1 () map__ref1
  (map__refqtmk1 sum1))

;; "H"
(assert (= sum1 temp___874))

;; "Assert"
(assert (= (bvand (to_rep (get1 sum1 63)) #xE0) #x00))

(declare-const i Int)

;; "i'unused"
(define-fun iqtunused () int__ref
  (int__refqtmk i))

;; "H"
(assert (= i 1))

;; "int__content'result'unused"
(define-fun int__contentqtresultqtunused () Int
  i)

;; "o"
(define-fun o2 () Bool
  (ite (<= i 63) true false))

;; "infix <='result'unused"
(define-fun infix_lseqqtresultqtunused () Bool
  o2)

;; "int__content'result'unused"
(define-fun int__contentqtresultqtunused1 () Int
  i)

;; "o"
(define-fun o3 () Bool
  (ite (<= 1 i) true false))

;; "infix <='result'unused"
(define-fun infix_lseqqtresultqtunused1 () Bool
  o3)

;; "o"
(define-fun o4 () Bool
  (and o3 o2))

;; "andb'result'unused"
(define-fun andbqtresultqtunused () Bool
  o4)

;; "H"
(assert (= o4 true))

;; "temp___loop_entry_895'unused"
(define-fun temp___loop_entry_895qtunused () map2
  column)

;; "map__content'result'unused"
(define-fun map__contentqtresultqtunused3 () map2
  column)

;; "temp___loop_entry_893'unused"
(define-fun temp___loop_entry_893qtunused () map2
  sum1)

;; "map__content'result'unused"
(define-fun map__contentqtresultqtunused4 () map2
  sum1)

(declare-const sum2 map2)

(declare-const column1 map2)

(declare-const i1 Int)

;; "i'unused"
(define-fun iqtunused1 () int__ref
  (int__refqtmk i1))

;; "column'unused"
(define-fun columnqtunused1 () map__ref1
  (map__refqtmk1 column1))

;; "sum'unused"
(define-fun sumqtunused2 () map__ref1
  (map__refqtmk1 sum2))

;; "Assume"
(assert
  (= (and (ite (and
                 (dynamic_invariant sum2 false true true true)
                 (dynamic_invariant column1 false true true true))
            true
            false) (ite (and (<= 1 i1) (<= i1 63)) true false)) true))

;; "map__content'result'unused"
(define-fun map__contentqtresultqtunused5 () map2
  sum2)

(declare-const sum3 map2)

;; "sum'unused"
(define-fun sumqtunused3 () map__ref1
  (map__refqtmk1 sum3))

;; "H"
(assert (dynamic_invariant sum3 true true true true))

;; "H"
(assert true)

;; "H"
(assert true)

;; "map__content'result'unused"
(define-fun map__contentqtresultqtunused6 () map2
  column1)

;; "temp___compl_880"
(define-fun temp___compl_880 () map1
  (convert1 column1))

;; "convert'result'unused"
(define-fun convertqtresultqtunused2 () map1
  temp___compl_880)

;; "param__column'unused"
(define-fun param__columnqtunused2 () map__ref
  (map__refqtmk temp___compl_880))

;; "map__ref'mk'result'unused"
(define-fun map__refqtmkqtresultqtunused1 () map__ref
  (map__refqtmk temp___compl_880))

;; "int__content'result'unused"
(define-fun int__contentqtresultqtunused2 () Int
  i1)

;; "map__content'result'unused"
(define-fun map__contentqtresultqtunused7 () map2
  chain_value)

;; "o"
(define-fun o5 () byte
  (get1 chain_value i1))

;; "get'result'unused"
(define-fun getqtresultqtunused1 () byte
  o5)

(declare-const o6 (_ BitVec 8))

;; "Ensures"
(assert (= (to_rep o5) o6))

;; "to_rep'result'unused"
(define-fun to_repqtresultqtunused1 () (_ BitVec 8)
  o6)

(declare-const param__column1 map1)

;; "param__column'unused"
(define-fun param__columnqtunused3 () map__ref
  (map__refqtmk param__column1))

;; "H"
(assert (us_is_initialized param__column1))

;; "H"
(assert (= (bvand (to_rep (rec__value (get param__column1 63))) #xE0) #x00))

;; "H"
(assert (has_bounds param__column1 0 63))

;; "H"
(assert true)

;; "H"
(assert true)

;; "map__content'result'unused"
(define-fun map__contentqtresultqtunused8 () map1
  param__column1)

;; Goal "def'vc"
;; File "sparknacl-hashing-rfsb509.adb", line 54, characters 0-0
(assert
  (not (us_is_initialized1 param__column1)))

(check-sat)
